
(set-option :produce-models true)
(set-option :inline-size-limit 10000)

(declare-const var0 String)

(push 1)
(assert (str.in.re var0 (re.* (re.range "\x01" "\xff"))))
(assert (str.in.re var0 (re.++ (re.++ re.begin-anchor (re.++ ((_ re.capture 1) (re.union ((_ re.capture 2) (re.union (re.++ (str.to.re "0") (re.range "0" "9")) (re.++ (str.to.re "1") (re.range "0" "2")))) (re.range "0" "9"))) (re.++ (str.to.re ":") (re.++ ((_ re.capture 3) (re.++ (re.range "0" "5") (re.range "0" "9"))) (re.++ ((_ re.capture 4) (re.* (str.to.re " "))) ((_ re.capture 5) (re.union ((_ re.capture 6) (re.union (re.++ (str.to.re "A") (str.to.re "M")) (re.++ (str.to.re "P") (str.to.re "M")))) ((_ re.capture 7) (re.union (str.to.re "A") (str.to.re "P")))))))))) re.end-anchor)))	; match!==null
(assert (not (str.in.re ((_ str.extract 1) var0 (re.++ (re.++ re.begin-anchor (re.++ ((_ re.capture 1) (re.union ((_ re.capture 2) (re.union (re.++ (str.to.re "0") (re.range "0" "9")) (re.++ (str.to.re "1") (re.range "0" "2")))) (re.range "0" "9"))) (re.++ (str.to.re ":") (re.++ ((_ re.capture 3) (re.++ (re.range "0" "5") (re.range "0" "9"))) (re.++ ((_ re.capture 4) (re.* (str.to.re " "))) ((_ re.capture 5) (re.union ((_ re.capture 6) (re.union (re.++ (str.to.re "A") (str.to.re "M")) (re.++ (str.to.re "P") (str.to.re "M")))) ((_ re.capture 7) (re.union (str.to.re "A") (str.to.re "P")))))))))) re.end-anchor)) (str.to.re "\x00"))))
;match[1]!==null
(assert (str.in.re ((_ str.extract 1) var0 (re.++ (re.++ re.begin-anchor (re.++ ((_ re.capture 1) (re.union ((_ re.capture 2) (re.union (re.++ (str.to.re "0") (re.range "0" "9")) (re.++ (str.to.re "1") (re.range "0" "2")))) (re.range "0" "9"))) (re.++ (str.to.re ":") (re.++ ((_ re.capture 3) (re.++ (re.range "0" "5") (re.range "0" "9"))) (re.++ ((_ re.capture 4) (re.* (str.to.re " "))) ((_ re.capture 5) (re.union ((_ re.capture 6) (re.union (re.++ (str.to.re "A") (str.to.re "M")) (re.++ (str.to.re "P") (str.to.re "M")))) ((_ re.capture 7) (re.union (str.to.re "A") (str.to.re "P")))))))))) re.end-anchor)) (re.++ re.all(re.+ (re.range "a" "z")) re.all) ))
;/[a-z]+/.test(match[1]) == true
(check-sat)
(get-model)
(pop 1)
(push 1)
(assert (str.in.re var0 (re.* (re.range "\x01" "\xff"))))
(assert (str.in.re var0 (re.++ (re.++ re.begin-anchor (re.++ ((_ re.capture 1) (re.union ((_ re.capture 2) (re.union (re.++ (str.to.re "0") (re.range "0" "9")) (re.++ (str.to.re "1") (re.range "0" "2")))) (re.range "0" "9"))) (re.++ (str.to.re ":") (re.++ ((_ re.capture 3) (re.++ (re.range "0" "5") (re.range "0" "9"))) (re.++ ((_ re.capture 4) (re.* (str.to.re " "))) ((_ re.capture 5) (re.union ((_ re.capture 6) (re.union (re.++ (str.to.re "A") (str.to.re "M")) (re.++ (str.to.re "P") (str.to.re "M")))) ((_ re.capture 7) (re.union (str.to.re "A") (str.to.re "P")))))))))) re.end-anchor)))	; match!==null
(assert (not (str.in.re ((_ str.extract 1) var0 (re.++ (re.++ re.begin-anchor (re.++ ((_ re.capture 1) (re.union ((_ re.capture 2) (re.union (re.++ (str.to.re "0") (re.range "0" "9")) (re.++ (str.to.re "1") (re.range "0" "2")))) (re.range "0" "9"))) (re.++ (str.to.re ":") (re.++ ((_ re.capture 3) (re.++ (re.range "0" "5") (re.range "0" "9"))) (re.++ ((_ re.capture 4) (re.* (str.to.re " "))) ((_ re.capture 5) (re.union ((_ re.capture 6) (re.union (re.++ (str.to.re "A") (str.to.re "M")) (re.++ (str.to.re "P") (str.to.re "M")))) ((_ re.capture 7) (re.union (str.to.re "A") (str.to.re "P")))))))))) re.end-anchor)) (str.to.re "\x00"))))	
;match[1]!==null
(assert (not (str.in.re ((_ str.extract 1) var0 (re.++ (re.++ re.begin-anchor (re.++ ((_ re.capture 1) (re.union ((_ re.capture 2) (re.union (re.++ (str.to.re "0") (re.range "0" "9")) (re.++ (str.to.re "1") (re.range "0" "2")))) (re.range "0" "9"))) (re.++ (str.to.re ":") (re.++ ((_ re.capture 3) (re.++ (re.range "0" "5") (re.range "0" "9"))) (re.++ ((_ re.capture 4) (re.* (str.to.re " "))) ((_ re.capture 5) (re.union ((_ re.capture 6) (re.union (re.++ (str.to.re "A") (str.to.re "M")) (re.++ (str.to.re "P") (str.to.re "M")))) ((_ re.capture 7) (re.union (str.to.re "A") (str.to.re "P")))))))))) re.end-anchor)) (re.++ re.all(re.+ (re.range "a" "z")) re.all) )))
;/[a-z]+/.test(match[1]) == false	
(check-sat)
(get-model)
(pop 1)
(push 1)
(assert (str.in.re var0 (re.* (re.range "\x01" "\xff"))))
(assert (str.in.re var0 (re.++ (re.++ re.begin-anchor (re.++ ((_ re.capture 1) (re.union ((_ re.capture 2) (re.union (re.++ (str.to.re "0") (re.range "0" "9")) (re.++ (str.to.re "1") (re.range "0" "2")))) (re.range "0" "9"))) (re.++ (str.to.re ":") (re.++ ((_ re.capture 3) (re.++ (re.range "0" "5") (re.range "0" "9"))) (re.++ ((_ re.capture 4) (re.* (str.to.re " "))) ((_ re.capture 5) (re.union ((_ re.capture 6) (re.union (re.++ (str.to.re "A") (str.to.re "M")) (re.++ (str.to.re "P") (str.to.re "M")))) ((_ re.capture 7) (re.union (str.to.re "A") (str.to.re "P")))))))))) re.end-anchor)))	; match!==null
(assert (str.in.re ((_ str.extract 1) var0 (re.++ (re.++ re.begin-anchor (re.++ ((_ re.capture 1) (re.union ((_ re.capture 2) (re.union (re.++ (str.to.re "0") (re.range "0" "9")) (re.++ (str.to.re "1") (re.range "0" "2")))) (re.range "0" "9"))) (re.++ (str.to.re ":") (re.++ ((_ re.capture 3) (re.++ (re.range "0" "5") (re.range "0" "9"))) (re.++ ((_ re.capture 4) (re.* (str.to.re " "))) ((_ re.capture 5) (re.union ((_ re.capture 6) (re.union (re.++ (str.to.re "A") (str.to.re "M")) (re.++ (str.to.re "P") (str.to.re "M")))) ((_ re.capture 7) (re.union (str.to.re "A") (str.to.re "P")))))))))) re.end-anchor)) (str.to.re "\x00")))
;match[1]==null
(check-sat)
(get-model)
(pop 1)
(push 1)
(assert (str.in.re var0 (re.* (re.range "\x01" "\xff"))))
(assert (not (str.in.re var0 (re.++ (re.++ re.begin-anchor (re.++ ((_ re.capture 1) (re.union ((_ re.capture 2) (re.union (re.++ (str.to.re "0") (re.range "0" "9")) (re.++ (str.to.re "1") (re.range "0" "2")))) (re.range "0" "9"))) (re.++ (str.to.re ":") (re.++ ((_ re.capture 3) (re.++ (re.range "0" "5") (re.range "0" "9"))) (re.++ ((_ re.capture 4) (re.* (str.to.re " "))) ((_ re.capture 5) (re.union ((_ re.capture 6) (re.union (re.++ (str.to.re "A") (str.to.re "M")) (re.++ (str.to.re "P") (str.to.re "M")))) ((_ re.capture 7) (re.union (str.to.re "A") (str.to.re "P")))))))))) re.end-anchor))))	; match == null
(check-sat)
(get-model)
(pop 1)
(exit)
